c Result of efficient AIG-to-CNF conversion using package CNF
p cnf 648 2405
-2 3 375 453 548 0
2 -548 0
2 -3 0
2 -453 0
2 -375 0
-3 4 -357 -366 372 0
-3 4 357 366 372 0
3 -372 0
3 -357 366 0
3 -4 0
3 357 -366 0
-4 5 287 -324 -342 0
-4 -5 -287 -324 -342 0
-4 5 287 324 342 0
-4 -5 -287 324 342 0
4 5 -287 0
4 -5 287 0
4 324 -342 0
4 -324 342 0
5 645 -6 0
5 -645 -260 0
-5 -645 260 0
-5 645 6 0
6 646 -7 0
6 -646 -235 0
-6 -646 235 0
-6 646 7 0
7 647 -8 0
7 -647 -211 0
-7 -647 211 0
-7 647 8 0
8 -611 9 -154 0
8 611 9 -19 0
-8 -9 0
-8 -611 154 0
-8 611 19 0
-9 10 12 17 0
9 -10 0
9 -12 0
9 -17 0
-10 602 603 604 11 0
10 -11 0
10 -604 0
10 -602 0
10 -603 0
-11 605 608 609 610 0
11 -610 0
11 -609 0
11 -605 0
11 -608 0
-12 584 13 14 15 0
12 -584 0
12 -15 0
12 -14 0
12 -13 0
-13 587 590 591 0
13 -587 0
13 -591 0
13 -590 0
-14 585 586 592 593 0
14 -593 0
14 -592 0
14 -585 0
14 -586 0
-15 595 596 597 16 0
15 -16 0
15 -597 0
15 -595 0
15 -596 0
-16 588 589 594 0
16 -588 0
16 -594 0
16 -589 0
-17 600 601 607 18 0
17 -18 0
17 -607 0
17 -600 0
17 -601 0
-18 598 599 606 0
18 -598 0
18 -606 0
18 -599 0
-19 612 20 0
-19 -612 97 0
19 -612 -97 0
19 612 -20 0
-20 613 79 0
-20 -613 21 0
20 -613 -21 0
20 613 -79 0
21 614 -22 0
21 -614 -60 0
-21 -614 60 0
-21 614 22 0
22 615 -23 0
22 -615 -46 0
-22 -615 46 0
-22 615 23 0
23 24 -34 0
-23 -24 0
-23 34 0
-24 643 25 28 32 0
24 -643 0
24 -32 0
24 -28 0
24 -25 0
-25 628 629 26 27 0
25 -628 0
25 -27 0
25 -26 0
25 -629 0
-26 622 623 630 631 0
26 -631 0
26 -630 0
26 -622 0
26 -623 0
-27 624 625 626 627 0
27 -627 0
27 -626 0
27 -624 0
27 -625 0
-28 636 29 30 31 0
28 -636 0
28 -31 0
28 -30 0
28 -29 0
-29 632 633 634 635 0
29 -635 0
29 -634 0
29 -632 0
29 -633 0
-30 637 638 639 0
30 -637 0
30 -639 0
30 -638 0
-31 640 641 642 0
31 -640 0
31 -642 0
31 -641 0
-32 616 617 621 33 0
32 -33 0
32 -621 0
32 -616 0
32 -617 0
-33 618 619 620 0
33 -618 0
33 -620 0
33 -619 0
34 644 -35 0
34 -644 -42 0
-34 -644 42 0
-34 644 35 0
35 645 -36 0
35 -645 -39 0
-35 -645 39 0
-35 645 36 0
36 646 -37 0
36 -646 -38 0
-36 -646 38 0
-36 646 37 0
37 -595 647 0
37 -594 -647 0
-37 595 647 0
-37 594 -647 0
38 -593 647 0
38 -592 -647 0
-38 593 647 0
-38 592 -647 0
39 646 -40 0
39 -646 -41 0
-39 -646 41 0
-39 646 40 0
40 -591 647 0
40 -590 -647 0
-40 591 647 0
-40 590 -647 0
41 -589 647 0
41 -588 -647 0
-41 589 647 0
-41 588 -647 0
42 645 -43 0
-42 -645 0
-42 43 0
43 646 -44 0
43 -646 -45 0
-43 -646 45 0
-43 646 44 0
44 -587 647 0
44 -586 -647 0
-44 587 647 0
-44 586 -647 0
45 -585 647 0
45 -584 -647 0
-45 585 647 0
-45 584 -647 0
46 24 -47 0
-46 -24 0
-46 47 0
47 644 -48 0
47 -644 -55 0
-47 -644 55 0
-47 644 48 0
48 645 -49 0
48 -645 -52 0
-48 -645 52 0
-48 645 49 0
49 646 -50 0
49 -646 -51 0
-49 -646 51 0
-49 646 50 0
50 -596 647 0
50 -595 -647 0
-50 596 647 0
-50 595 -647 0
51 -594 647 0
51 -593 -647 0
-51 594 647 0
-51 593 -647 0
52 646 -53 0
52 -646 -54 0
-52 -646 54 0
-52 646 53 0
53 -592 647 0
53 -591 -647 0
-53 592 647 0
-53 591 -647 0
54 -590 647 0
54 -589 -647 0
-54 590 647 0
-54 589 -647 0
55 645 -56 0
55 -645 -59 0
-55 -645 59 0
-55 645 56 0
56 646 -57 0
56 -646 -58 0
-56 -646 58 0
-56 646 57 0
57 -588 647 0
57 -587 -647 0
-57 588 647 0
-57 587 -647 0
58 -586 647 0
58 -585 -647 0
-58 586 647 0
-58 585 -647 0
59 -584 646 647 0
-59 584 0
-59 -647 0
-59 -646 0
60 615 -61 0
60 -615 -70 0
-60 -615 70 0
-60 615 61 0
61 24 -62 0
-61 -24 0
-61 62 0
62 644 -63 0
62 -644 -67 0
-62 -644 67 0
-62 644 63 0
63 645 -64 0
63 -645 -66 0
-63 -645 66 0
-63 645 64 0
64 -646 -37 0
64 646 -65 0
-64 646 65 0
-64 -646 37 0
65 -597 647 0
65 -596 -647 0
-65 597 647 0
-65 596 -647 0
66 646 -38 0
66 -646 -40 0
-66 -646 40 0
-66 646 38 0
67 645 -68 0
67 -645 -69 0
-67 -645 69 0
-67 645 68 0
68 646 -41 0
68 -646 -44 0
-68 -646 44 0
-68 646 41 0
69 -584 646 -647 0
69 -585 646 647 0
-69 -646 0
-69 584 -647 0
-69 585 647 0
70 24 -71 0
-70 -24 0
-70 71 0
71 644 -72 0
71 -644 -76 0
-71 -644 76 0
-71 644 72 0
72 645 -73 0
72 -645 -75 0
-72 -645 75 0
-72 645 73 0
73 -646 -50 0
73 646 -74 0
-73 646 74 0
-73 -646 50 0
74 -598 647 0
74 -597 -647 0
-74 598 647 0
-74 597 -647 0
75 646 -51 0
75 -646 -53 0
-75 -646 53 0
-75 646 51 0
76 645 -77 0
76 -645 -78 0
-76 -645 78 0
-76 645 77 0
77 646 -54 0
77 -646 -57 0
-77 -646 57 0
-77 646 54 0
78 646 -58 0
78 -584 -646 647 0
-78 646 58 0
-78 -646 -647 0
-78 584 -646 0
79 614 -80 0
79 -614 -88 0
-79 -614 88 0
-79 614 80 0
80 615 -81 0
80 -615 -84 0
-80 -615 84 0
-80 615 81 0
81 24 -82 0
-81 -24 0
-81 82 0
82 644 -83 0
-82 -644 0
-82 83 0
83 645 -39 0
83 -645 -43 0
-83 -645 43 0
-83 645 39 0
84 24 -85 0
-84 -24 0
-84 85 0
85 644 -86 0
85 -644 -87 0
-85 -644 87 0
-85 644 86 0
86 645 -52 0
86 -645 -56 0
-86 -645 56 0
-86 645 52 0
87 -584 645 646 647 0
-87 -647 0
-87 -646 0
-87 584 0
-87 -645 0
88 615 -89 0
88 -615 -93 0
-88 -615 93 0
-88 615 89 0
89 24 -90 0
-89 -24 0
-89 90 0
90 644 -91 0
90 -644 -92 0
-90 -644 92 0
-90 644 91 0
91 645 -66 0
91 -645 -68 0
-91 -645 68 0
-91 645 66 0
92 645 -69 0
-92 -645 0
-92 69 0
93 24 -94 0
-93 -24 0
-93 94 0
94 644 -95 0
94 -644 -96 0
-94 -644 96 0
-94 644 95 0
95 645 -75 0
95 -645 -77 0
-95 -645 77 0
-95 645 75 0
96 645 -78 0
-96 -645 0
-96 78 0
97 613 -98 0
97 -613 -127 0
-97 -613 127 0
-97 613 98 0
98 614 -99 0
98 -614 -114 0
-98 -614 114 0
-98 614 99 0
99 615 -100 0
99 -615 -105 0
-99 -615 105 0
-99 615 100 0
100 24 -101 0
-100 -24 0
-100 101 0
101 -644 -83 0
101 644 -102 0
-101 644 102 0
-101 -644 83 0
102 -645 -36 0
102 645 -103 0
-102 645 103 0
-102 -645 36 0
103 -646 -65 0
103 646 -104 0
-103 646 104 0
-103 -646 65 0
104 -599 647 0
104 -598 -647 0
-104 599 647 0
-104 598 -647 0
105 643 -106 110 0
105 -643 110 -113 0
-105 -110 0
-105 -643 113 0
-105 643 106 0
106 -644 -86 0
106 644 -107 0
-106 644 107 0
-106 -644 86 0
107 -645 -49 0
107 645 -108 0
-107 645 108 0
-107 -645 49 0
108 -646 -74 0
108 646 -109 0
-108 646 109 0
-108 -646 74 0
109 -600 647 0
109 -599 -647 0
-109 600 647 0
-109 599 -647 0
-110 618 619 111 112 0
110 -618 0
110 -112 0
110 -111 0
110 -619 0
-111 616 617 0
111 -616 0
111 -617 0
-112 620 621 25 28 0
112 -620 0
112 -28 0
112 -25 0
112 -621 0
113 644 -87 0
-113 -644 0
-113 87 0
114 615 -115 0
114 -615 -121 0
-114 -615 121 0
-114 615 115 0
115 -643 110 -120 0
115 643 110 -116 0
-115 -110 0
-115 -643 120 0
-115 643 116 0
116 -644 -91 0
116 644 -117 0
-116 644 117 0
-116 -644 91 0
117 -645 -64 0
117 645 -118 0
-117 645 118 0
-117 -645 64 0
118 -646 -104 0
118 646 -119 0
-118 646 119 0
-118 -646 104 0
119 -601 647 0
119 -600 -647 0
-119 601 647 0
-119 600 -647 0
120 644 -92 0
-120 -644 0
-120 92 0
121 -643 110 -126 0
121 643 110 -122 0
-121 -110 0
-121 -643 126 0
-121 643 122 0
122 -644 -95 0
122 644 -123 0
-122 644 123 0
-122 -644 95 0
123 -645 -73 0
123 645 -124 0
-123 645 124 0
-123 -645 73 0
124 -646 -109 0
124 646 -125 0
-124 646 125 0
-124 -646 109 0
125 -602 647 0
125 -601 -647 0
-125 602 647 0
-125 601 -647 0
126 644 -96 0
-126 -644 0
-126 96 0
127 614 -128 0
127 -614 -141 0
-127 -614 141 0
-127 614 128 0
128 615 -129 0
128 -615 -135 0
-128 -615 135 0
-128 615 129 0
129 -643 110 -134 0
129 643 110 -130 0
-129 -110 0
-129 -643 134 0
-129 643 130 0
130 -644 -35 0
130 644 -131 0
-130 644 131 0
-130 -644 35 0
131 -645 -103 0
131 645 -132 0
-131 645 132 0
-131 -645 103 0
132 -646 -119 0
132 646 -133 0
-132 646 133 0
-132 -646 119 0
133 -603 647 0
133 -602 -647 0
-133 603 647 0
-133 602 -647 0
134 644 -42 0
-134 -644 0
-134 42 0
135 -643 110 -140 0
135 643 110 -136 0
-135 -110 0
-135 -643 140 0
-135 643 136 0
136 -644 -48 0
136 644 -137 0
-136 644 137 0
-136 -644 48 0
137 -645 -108 0
137 645 -138 0
-137 645 138 0
-137 -645 108 0
138 -646 -125 0
138 646 -139 0
-138 646 139 0
-138 -646 125 0
139 -604 647 0
139 -603 -647 0
-139 604 647 0
-139 603 -647 0
140 644 -55 0
-140 -644 0
-140 55 0
141 615 -142 0
141 -615 -148 0
-141 -615 148 0
-141 615 142 0
142 -643 110 -147 0
142 643 110 -143 0
-142 -110 0
-142 -643 147 0
-142 643 143 0
143 -644 -63 0
143 644 -144 0
-143 644 144 0
-143 -644 63 0
144 -645 -118 0
144 645 -145 0
-144 645 145 0
-144 -645 118 0
145 -646 -133 0
145 646 -146 0
-145 646 146 0
-145 -646 133 0
146 -605 647 0
146 -604 -647 0
-146 605 647 0
-146 604 -647 0
147 644 -67 0
-147 -644 0
-147 67 0
148 -643 110 -153 0
148 643 110 -149 0
-148 -110 0
-148 -643 153 0
-148 643 149 0
149 -644 -72 0
149 644 -150 0
-149 644 150 0
-149 -644 72 0
150 -645 -124 0
150 645 -151 0
-150 645 151 0
-150 -645 124 0
151 -646 -139 0
151 646 -152 0
-151 646 152 0
-151 -646 139 0
152 -606 647 0
152 -605 -647 0
-152 606 647 0
-152 605 -647 0
153 644 -76 0
-153 -644 0
-153 76 0
154 612 -155 0
154 -612 -202 0
-154 -612 202 0
-154 612 155 0
155 613 -156 0
155 -613 -179 0
-155 -613 179 0
-155 613 156 0
156 614 -157 0
156 -614 -168 0
-156 -614 168 0
-156 614 157 0
157 615 -158 0
157 -615 -163 0
-157 -615 163 0
-157 615 158 0
158 643 110 -159 0
158 -643 -82 110 0
-158 -110 0
-158 -643 82 0
-158 643 159 0
159 -644 -102 0
159 644 -160 0
-159 644 160 0
-159 -644 102 0
160 -645 -132 0
160 645 -161 0
-160 645 161 0
-160 -645 132 0
161 -646 -146 0
161 646 -162 0
-161 646 162 0
-161 -646 146 0
162 -607 647 0
162 -606 -647 0
-162 607 647 0
-162 606 -647 0
163 643 110 -164 0
163 -643 -85 110 0
-163 -110 0
-163 643 164 0
-163 -643 85 0
-164 -644 107 0
-164 644 165 0
164 -644 -107 0
164 644 -165 0
-165 645 166 0
-165 -645 138 0
165 -645 -138 0
165 645 -166 0
166 -646 -152 0
166 646 -167 0
-166 646 167 0
-166 -646 152 0
167 -608 647 0
167 -607 -647 0
-167 608 647 0
-167 607 -647 0
168 615 -169 0
168 -615 -174 0
-168 -615 174 0
-168 615 169 0
169 643 110 -170 0
169 -643 -90 110 0
-169 -110 0
-169 643 170 0
-169 -643 90 0
-170 -644 117 0
-170 644 171 0
170 -644 -117 0
170 644 -171 0
-171 645 172 0
-171 -645 145 0
171 -645 -145 0
171 645 -172 0
172 -646 -162 0
172 646 -173 0
-172 646 173 0
-172 -646 162 0
173 -609 647 0
173 -608 -647 0
-173 609 647 0
-173 608 -647 0
174 643 110 -175 0
174 -643 -94 110 0
-174 -110 0
-174 643 175 0
-174 -643 94 0
-175 -644 123 0
-175 644 176 0
175 -644 -123 0
175 644 -176 0
-176 645 177 0
-176 -645 151 0
176 -645 -151 0
176 645 -177 0
177 -646 -167 0
177 646 -178 0
-177 646 178 0
-177 -646 167 0
178 -610 647 0
178 -609 -647 0
-178 610 647 0
-178 609 -647 0
179 614 -180 0
179 -614 -191 0
-179 -614 191 0
-179 614 180 0
180 615 -181 0
180 -615 -186 0
-180 -615 186 0
-180 615 181 0
181 643 110 -182 0
181 -643 -34 110 0
-181 -110 0
-181 643 182 0
-181 -643 34 0
-182 -644 131 0
-182 644 183 0
182 -644 -131 0
182 644 -183 0
-183 645 184 0
-183 -645 161 0
183 -645 -161 0
183 645 -184 0
184 -646 -173 0
184 646 -185 0
-184 646 185 0
-184 -646 173 0
185 -611 647 0
185 -610 -647 0
-185 611 647 0
-185 610 -647 0
186 643 110 -187 0
186 -643 -47 110 0
-186 -110 0
-186 643 187 0
-186 -643 47 0
-187 -644 137 0
-187 644 188 0
187 -644 -137 0
187 644 -188 0
-188 -645 166 0
-188 645 189 0
188 -645 -166 0
188 645 -189 0
-189 646 190 0
-189 -646 178 0
189 -646 -178 0
189 646 -190 0
190 -612 647 0
190 -611 -647 0
-190 612 647 0
-190 611 -647 0
191 615 -192 0
191 -615 -197 0
-191 -615 197 0
-191 615 192 0
192 643 110 -193 0
192 -643 -62 110 0
-192 -110 0
-192 643 193 0
-192 -643 62 0
-193 -644 144 0
-193 644 194 0
193 -644 -144 0
193 644 -194 0
-194 -645 172 0
-194 645 195 0
194 -645 -172 0
194 645 -195 0
-195 646 196 0
-195 -646 185 0
195 -646 -185 0
195 646 -196 0
196 -613 647 0
196 -612 -647 0
-196 613 647 0
-196 612 -647 0
197 643 110 -198 0
197 -643 -71 110 0
-197 -110 0
-197 643 198 0
-197 -643 71 0
-198 -644 150 0
-198 644 199 0
198 -644 -150 0
198 644 -199 0
-199 -645 177 0
-199 645 200 0
199 -645 -177 0
199 645 -200 0
-200 646 201 0
-200 -646 190 0
200 -646 -190 0
200 646 -201 0
201 -614 647 0
201 -613 -647 0
-201 614 647 0
-201 613 -647 0
202 613 -203 0
-202 -613 0
-202 203 0
203 614 -204 0
-203 -614 0
-203 204 0
204 615 -205 0
-204 -615 0
-204 205 0
205 643 110 -206 0
205 -643 -101 110 0
-205 -110 0
-205 643 206 0
-205 -643 101 0
-206 -644 160 0
-206 644 207 0
206 -644 -160 0
206 644 -207 0
-207 -645 184 0
-207 645 208 0
207 -645 -184 0
207 645 -208 0
-208 646 210 0
-208 -646 196 0
-208 646 -209 0
208 -646 -196 0
208 646 209 -210 0
209 614 -647 0
-209 -614 0
-209 647 0
-210 615 647 0
210 -615 0
210 -647 0
211 -611 9 -227 0
211 611 9 -212 0
-211 -9 0
-211 -611 227 0
-211 611 212 0
-212 612 220 0
-212 -612 213 0
212 -612 -213 0
212 612 -220 0
213 613 -214 0
213 -613 -217 0
-213 -613 217 0
-213 613 214 0
214 614 -215 0
214 -614 -216 0
-214 -614 216 0
-214 614 215 0
215 615 -105 0
215 -615 -115 0
-215 -615 115 0
-215 615 105 0
216 615 -121 0
216 -615 -129 0
-216 -615 129 0
-216 615 121 0
217 614 -218 0
217 -614 -219 0
-217 -614 219 0
-217 614 218 0
218 615 -135 0
218 -615 -142 0
-218 -615 142 0
-218 615 135 0
219 615 -148 0
219 -615 -158 0
-219 -615 158 0
-219 615 148 0
220 613 -221 0
220 -613 -224 0
-220 -613 224 0
-220 613 221 0
221 614 -222 0
221 -614 -223 0
-221 -614 223 0
-221 614 222 0
222 615 -84 0
222 -615 -89 0
-222 -615 89 0
-222 615 84 0
223 -615 -23 0
223 615 -93 0
-223 615 93 0
-223 -615 23 0
224 614 -225 0
224 -614 -226 0
-224 -614 226 0
-224 614 225 0
225 615 -46 0
225 -615 -61 0
-225 -615 61 0
-225 615 46 0
226 615 -70 0
226 -615 -100 0
-226 -615 100 0
-226 615 70 0
227 612 -228 0
-227 -612 0
-227 228 0
228 613 -229 0
228 -613 -232 0
-228 -613 232 0
-228 613 229 0
229 614 -230 0
229 -614 -231 0
-229 -614 231 0
-229 614 230 0
230 615 -163 0
230 -615 -169 0
-230 -615 169 0
-230 615 163 0
231 615 -174 0
231 -615 -181 0
-231 -615 181 0
-231 615 174 0
232 614 -233 0
232 -614 -234 0
-232 -614 234 0
-232 614 233 0
233 615 -186 0
233 -615 -192 0
-233 -615 192 0
-233 615 186 0
234 615 -197 0
234 -615 -205 0
-234 -615 205 0
-234 615 197 0
235 647 -236 0
235 -647 -248 0
-235 -647 248 0
-235 647 236 0
236 -611 9 -244 0
236 611 9 -237 0
-236 -9 0
-236 -611 244 0
-236 611 237 0
237 612 -238 0
237 -612 -241 0
-237 -612 241 0
-237 612 238 0
238 613 -239 0
238 -613 -240 0
-238 -613 240 0
-238 613 239 0
239 -614 -22 0
239 614 -88 0
-239 614 88 0
-239 -614 22 0
240 614 -60 0
240 -614 -99 0
-240 -614 99 0
-240 614 60 0
241 613 -242 0
241 -613 -243 0
-241 -613 243 0
-241 613 242 0
242 614 -114 0
242 -614 -128 0
-242 -614 128 0
-242 614 114 0
243 614 -141 0
243 -614 -157 0
-243 -614 157 0
-243 614 141 0
244 612 -245 0
-244 -612 0
-244 245 0
245 613 -246 0
245 -613 -247 0
-245 -613 247 0
-245 613 246 0
246 614 -168 0
246 -614 -180 0
-246 -614 180 0
-246 614 168 0
247 614 -191 0
247 -614 -204 0
-247 -614 204 0
-247 614 191 0
248 -611 9 -256 0
248 611 9 -249 0
-248 -9 0
-248 -611 256 0
-248 611 249 0
249 612 -250 0
249 -612 -253 0
-249 -612 253 0
-249 612 250 0
250 613 -251 0
250 -613 -252 0
-250 -613 252 0
-250 613 251 0
251 614 -223 0
251 -614 -225 0
-251 -614 225 0
-251 614 223 0
252 -614 -215 0
252 614 -226 0
-252 614 226 0
-252 -614 215 0
253 613 -254 0
253 -613 -255 0
-253 -613 255 0
-253 613 254 0
254 614 -216 0
254 -614 -218 0
-254 -614 218 0
-254 614 216 0
255 614 -219 0
255 -614 -230 0
-255 -614 230 0
-255 614 219 0
256 612 -257 0
-256 -612 0
-256 257 0
257 613 -258 0
257 -613 -259 0
-257 -613 259 0
-257 613 258 0
258 614 -231 0
258 -614 -233 0
-258 -614 233 0
-258 614 231 0
259 614 -234 0
-259 -614 0
-259 234 0
260 646 -261 0
260 -646 -274 0
-260 -646 274 0
-260 646 261 0
261 647 -262 0
261 -647 -268 0
-261 -647 268 0
-261 647 262 0
262 -611 9 -266 0
262 611 9 -263 0
-262 -9 0
-262 -611 266 0
-262 611 263 0
263 612 -264 0
263 -612 -265 0
-263 -612 265 0
-263 612 264 0
264 613 -21 0
264 -613 -98 0
-264 -613 98 0
-264 613 21 0
265 613 -127 0
265 -613 -156 0
-265 -613 156 0
-265 613 127 0
266 612 -267 0
-266 -612 0
-266 267 0
267 613 -179 0
267 -613 -203 0
-267 -613 203 0
-267 613 179 0
268 -611 9 -272 0
268 611 9 -269 0
-268 -9 0
-268 -611 272 0
-268 611 269 0
269 612 -270 0
269 -612 -271 0
-269 -612 271 0
-269 612 270 0
270 -613 -214 0
270 613 -224 0
-270 613 224 0
-270 -613 214 0
271 613 -217 0
271 -613 -229 0
-271 -613 229 0
-271 613 217 0
272 612 -273 0
-272 -612 0
-272 273 0
273 613 -232 0
-273 -613 0
-273 232 0
274 647 -275 0
274 -647 -281 0
-274 -647 281 0
-274 647 275 0
275 -611 9 -279 0
275 611 9 -276 0
-275 -9 0
-275 -611 279 0
-275 611 276 0
276 612 -277 0
276 -612 -278 0
-276 -612 278 0
-276 612 277 0
277 613 -240 0
277 -613 -242 0
-277 -613 242 0
-277 613 240 0
278 613 -243 0
278 -613 -246 0
-278 -613 246 0
-278 613 243 0
279 612 -280 0
-279 -612 0
-279 280 0
280 613 -247 0
-280 -613 0
-280 247 0
281 -611 9 -285 0
281 611 9 -282 0
-281 -9 0
-281 -611 285 0
-281 611 282 0
282 612 -283 0
282 -612 -284 0
-282 -612 284 0
-282 612 283 0
283 613 -252 0
283 -613 -254 0
-283 -613 254 0
-283 613 252 0
284 613 -255 0
284 -613 -258 0
-284 -613 258 0
-284 613 255 0
285 612 -286 0
-285 -612 0
-285 286 0
286 613 -259 0
-286 -613 0
-286 259 0
287 288 -294 0
287 288 -313 0
-287 -288 0
-287 294 313 0
-288 10 289 292 293 0
288 -293 0
288 -10 0
288 -292 0
288 -289 0
-289 636 637 27 290 0
289 -636 0
289 -290 0
289 -27 0
289 -637 0
-290 638 639 26 291 0
290 -638 0
290 -291 0
290 -26 0
290 -639 0
-291 628 629 0
291 -628 0
291 -629 0
-292 17 29 32 0
292 -17 0
292 -29 0
292 -32 0
-293 640 641 642 12 0
293 -12 0
293 -642 0
293 -640 0
293 -641 0
294 295 -296 -306 0
294 295 296 -297 0
-294 -295 0
-294 296 297 0
-294 -296 306 0
-295 611 643 0
295 -611 0
295 -643 0
-296 612 644 0
296 -612 0
296 -644 0
-297 298 303 0
-297 -298 299 0
297 -298 -299 0
297 298 -303 0
-298 613 645 0
298 -613 0
298 -645 0
299 300 -301 0
299 -300 -302 0
-299 -300 302 0
-299 300 301 0
-300 614 646 0
300 -614 0
300 -646 0
301 -615 -46 0
301 -647 -46 0
301 615 647 -23 0
-301 -615 46 0
-301 -647 46 0
-301 615 647 23 0
302 -615 -70 0
302 -647 -70 0
302 615 647 -61 0
-302 -615 70 0
-302 -647 70 0
-302 615 647 61 0
303 300 -304 0
303 -300 -305 0
-303 -300 305 0
-303 300 304 0
304 -615 -84 0
304 -647 -84 0
304 615 647 -81 0
-304 -615 84 0
-304 -647 84 0
-304 615 647 81 0
305 -615 -93 0
305 -647 -93 0
305 615 647 -89 0
-305 -615 93 0
-305 -647 93 0
-305 615 647 89 0
306 298 -307 0
306 -298 -310 0
-306 -298 310 0
-306 298 307 0
307 300 -308 0
307 -300 -309 0
-307 -300 309 0
-307 300 308 0
308 -105 -210 0
308 -100 210 0
-308 105 -210 0
-308 100 210 0
309 -121 -210 0
309 -115 210 0
-309 121 -210 0
-309 115 210 0
310 300 -311 0
310 -300 -312 0
-310 -300 312 0
-310 300 311 0
311 -135 -210 0
311 -129 210 0
-311 135 -210 0
-311 129 210 0
312 -148 -210 0
312 -142 210 0
-312 148 -210 0
-312 142 210 0
313 -295 -314 0
-313 295 0
-313 314 0
314 296 -315 0
314 -296 298 -322 0
-314 296 315 0
-314 -296 -298 0
-314 -296 322 0
315 298 -316 0
315 -298 -319 0
-315 -298 319 0
-315 298 316 0
316 300 -317 0
316 -300 -318 0
-316 -300 318 0
-316 300 317 0
317 -163 -210 0
317 -158 210 0
-317 163 -210 0
-317 158 210 0
318 -615 -174 0
318 -647 -174 0
318 615 647 -169 0
-318 -615 174 0
-318 -647 174 0
-318 615 647 169 0
319 300 -320 0
319 -300 -321 0
-319 -300 321 0
-319 300 320 0
320 -615 -186 0
320 -647 -186 0
320 615 647 -181 0
-320 -615 186 0
-320 -647 186 0
-320 615 647 181 0
321 -615 -197 0
321 -647 -197 0
321 615 647 -192 0
-321 -615 197 0
-321 -647 197 0
-321 615 647 192 0
322 300 -323 0
-322 -300 0
-322 323 0
323 210 -205 0
-323 -210 0
-323 205 0
324 645 -325 0
324 -645 -341 0
-324 -645 341 0
-324 645 325 0
325 -646 -7 0
325 646 -326 0
-325 646 326 0
-325 -646 7 0
326 647 -327 0
326 -647 -335 0
-326 -647 335 0
-326 647 327 0
327 -611 9 -334 0
327 611 9 -328 0
-327 -9 0
-327 -611 334 0
-327 611 328 0
-328 -612 277 0
-328 612 329 0
328 -612 -277 0
328 612 -329 0
-329 613 330 0
-329 -613 239 0
329 -613 -239 0
329 613 -330 0
330 -614 -80 0
330 614 -331 0
-330 614 331 0
-330 -614 80 0
331 615 -332 0
331 -615 -333 0
-331 -615 333 0
-331 615 332 0
332 24 -147 0
-332 -24 0
-332 147 0
333 24 -153 0
-333 -24 0
-333 153 0
334 612 -278 0
334 -612 -280 0
-334 -612 280 0
-334 612 278 0
335 -611 9 -340 0
335 611 9 -336 0
-335 -9 0
-335 -611 340 0
-335 611 336 0
-336 -612 283 0
-336 612 337 0
336 -612 -283 0
336 612 -337 0
-337 613 338 0
-337 -613 251 0
337 -613 -251 0
337 613 -338 0
338 -614 -222 0
338 614 -339 0
-338 614 339 0
-338 -614 222 0
339 -615 -81 0
339 615 -333 0
-339 615 333 0
-339 -615 81 0
340 612 -284 0
340 -612 -286 0
-340 -612 286 0
-340 612 284 0
341 646 -235 0
341 -646 -261 0
-341 -646 261 0
-341 646 235 0
342 288 -343 0
342 288 -351 0
-342 -288 0
-342 343 351 0
343 295 -296 -348 0
343 295 296 -344 0
-343 -295 0
-343 296 344 0
-343 -296 348 0
-344 298 346 0
-344 -298 345 0
344 -298 -345 0
344 298 -346 0
345 -300 -301 0
345 300 -305 0
-345 300 305 0
-345 -300 301 0
346 -300 -304 0
346 300 -347 0
-346 300 347 0
-346 -300 304 0
347 -615 -333 0
347 -647 -333 0
347 615 647 -332 0
-347 -615 333 0
-347 -647 333 0
-347 615 647 332 0
348 298 -349 0
348 -298 -350 0
-348 -298 350 0
-348 298 349 0
349 300 -302 0
349 -300 -308 0
-349 -300 308 0
-349 300 302 0
350 300 -309 0
350 -300 -311 0
-350 -300 311 0
-350 300 309 0
351 -295 -296 -355 0
351 -295 296 -352 0
-351 295 0
-351 296 352 0
-351 -296 355 0
352 298 -353 0
352 -298 -354 0
-352 -298 354 0
-352 298 353 0
353 300 -312 0
353 -300 -317 0
-353 -300 317 0
-353 300 312 0
354 300 -318 0
354 -300 -320 0
-354 -300 320 0
-354 300 318 0
355 298 -356 0
-355 -298 0
-355 356 0
356 300 -321 0
356 -300 -323 0
-356 -300 323 0
-356 300 321 0
357 645 -341 0
357 -645 -358 0
-357 -645 358 0
-357 645 341 0
358 646 -274 0
358 -646 -359 0
-358 -646 359 0
-358 646 274 0
359 647 -360 0
359 -647 -363 0
-359 -647 363 0
-359 647 360 0
360 -611 9 -362 0
360 611 9 -361 0
-360 -9 0
-360 -611 362 0
-360 611 361 0
361 612 -97 0
361 -612 -155 0
-361 -612 155 0
-361 612 97 0
362 612 -202 0
-362 -612 0
-362 202 0
363 364 -365 0
-363 -364 0
-363 365 0
-364 611 9 0
364 -611 0
364 -9 0
365 612 -213 0
365 -612 -228 0
-365 -612 228 0
-365 612 213 0
366 288 -295 -370 0
366 288 295 -367 0
-366 -288 0
-366 295 367 0
-366 -295 370 0
367 296 -368 0
367 -296 -369 0
-367 -296 369 0
-367 296 368 0
368 298 -345 0
368 -298 -349 0
-368 -298 349 0
-368 298 345 0
369 298 -350 0
369 -298 -353 0
-369 -298 353 0
-369 298 350 0
370 296 -371 0
-370 -296 0
-370 371 0
371 298 -354 0
371 -298 -356 0
-371 -298 356 0
-371 298 354 0
372 645 -358 373 0
372 645 -358 -374 0
-372 -645 0
-372 358 0
-372 -373 374 0
-373 295 -296 352 0
-373 295 296 348 0
373 -295 0
373 296 -348 0
373 -296 -352 0
-374 288 295 0
-374 288 296 -355 0
374 -288 0
374 -295 355 0
374 -295 -296 0
-375 376 409 410 416 0
-375 376 -409 -410 416 0
375 -416 0
375 -409 410 0
375 -376 0
375 409 -410 0
-376 -377 -384 386 0
-376 377 384 386 0
376 -386 0
376 -377 384 0
376 377 -384 0
377 645 -378 0
-377 -645 0
-377 378 0
378 646 -359 0
378 -646 -379 0
-378 -646 379 0
-378 646 359 0
379 647 -380 0
379 -647 -382 0
-379 -647 382 0
-379 647 380 0
380 364 -381 0
-380 -364 0
-380 381 0
381 612 -241 0
381 -612 -245 0
-381 -612 245 0
-381 612 241 0
382 364 -383 0
-382 -364 0
-382 383 0
383 612 -253 0
383 -612 -257 0
-383 -612 257 0
-383 612 253 0
384 -295 374 0
384 374 -385 0
-384 -374 0
-384 295 385 0
385 296 -306 0
385 -296 -315 0
-385 -296 315 0
-385 296 306 0
386 645 -387 390 0
386 645 -387 -405 0
-386 -645 0
-386 387 0
-386 -390 405 0
387 646 -388 0
387 -646 -389 0
-387 -646 389 0
-387 646 388 0
388 647 -281 0
388 -647 -360 0
-388 -647 360 0
-388 647 281 0
389 647 -363 0
389 -647 -380 0
-389 -647 380 0
-389 647 363 0
-390 295 -296 398 0
-390 295 296 391 0
390 -295 0
390 296 -391 0
390 -296 -398 0
391 298 -392 0
391 -298 -395 0
-391 -298 395 0
-391 298 392 0
392 300 -393 0
392 -300 -394 0
-392 -300 394 0
-392 300 393 0
393 -615 -100 0
393 -647 -100 0
393 615 647 -70 0
-393 -615 100 0
-393 -647 100 0
-393 615 647 70 0
394 -115 -210 0
394 -105 210 0
-394 115 -210 0
-394 105 210 0
395 300 -396 0
395 -300 -397 0
-395 -300 397 0
-395 300 396 0
396 -129 -210 0
396 -121 210 0
-396 129 -210 0
-396 121 210 0
397 -142 -210 0
397 -135 210 0
-397 142 -210 0
-397 135 210 0
398 298 -399 0
398 -298 -402 0
-398 -298 402 0
-398 298 399 0
399 300 -400 0
399 -300 -401 0
-399 -300 401 0
-399 300 400 0
400 -158 -210 0
400 -148 210 0
-400 158 -210 0
-400 148 210 0
401 -615 -169 0
401 -647 -169 0
401 615 647 -163 0
-401 -615 169 0
-401 -647 169 0
-401 615 647 163 0
402 300 -403 0
402 -300 -404 0
-402 -300 404 0
-402 300 403 0
403 -615 -181 0
403 -647 -181 0
403 615 647 -174 0
-403 -615 181 0
-403 -647 181 0
-403 615 647 174 0
404 -615 -192 0
404 -647 -192 0
404 615 647 -186 0
-404 -615 192 0
-404 -647 192 0
-404 615 647 186 0
-405 288 295 0
-405 288 296 -406 0
405 -288 0
405 -295 406 0
405 -295 -296 0
406 298 -407 0
-406 -298 0
-406 407 0
407 300 -408 0
-407 -300 0
-407 408 0
408 -615 -205 0
408 -647 -205 0
408 615 647 -197 0
-408 -615 205 0
-408 -647 205 0
-408 615 647 197 0
409 645 -260 0
409 -645 -378 0
-409 -645 378 0
-409 645 260 0
410 288 -295 -414 0
410 288 295 -411 0
-410 -288 0
-410 295 411 0
-410 -295 414 0
411 296 -412 0
411 -296 -413 0
-411 -296 413 0
-411 296 412 0
412 298 -299 0
412 -298 -307 0
-412 -298 307 0
-412 298 299 0
413 298 -310 0
413 -298 -316 0
-413 -298 316 0
-413 298 310 0
414 296 -415 0
-414 -296 0
-414 415 0
415 298 -319 0
415 -298 -322 0
-415 -298 322 0
-415 298 319 0
-416 417 421 430 443 0
-416 -417 -421 430 443 0
416 -443 0
416 -417 421 0
416 -430 0
416 417 -421 0
417 -645 -387 0
417 645 -418 0
-417 645 418 0
-417 -645 387 0
418 646 -419 0
418 -646 -420 0
-418 -646 420 0
-418 646 419 0
419 647 -248 0
419 -647 -262 0
-419 -647 262 0
-419 647 248 0
420 647 -268 0
420 -647 -275 0
-420 -647 275 0
-420 647 268 0
421 288 -295 -428 0
421 288 295 -422 0
-421 -288 0
-421 295 422 0
-421 -295 428 0
422 296 -423 0
422 -296 -427 0
-422 -296 427 0
-422 296 423 0
423 -298 -392 0
423 298 -424 0
-423 298 424 0
-423 -298 392 0
424 300 -425 0
424 -300 -426 0
-424 -300 426 0
-424 300 425 0
425 -615 -23 0
425 615 647 -93 0
425 -647 -23 0
-425 -647 23 0
-425 615 647 93 0
-425 -615 23 0
426 -615 -61 0
426 -647 -61 0
426 615 647 -46 0
-426 -615 61 0
-426 -647 61 0
-426 615 647 46 0
427 298 -395 0
427 -298 -399 0
-427 -298 399 0
-427 298 395 0
428 296 -429 0
-428 -296 0
-428 429 0
429 298 -402 0
429 -298 -407 0
-429 -298 407 0
-429 298 402 0
-430 -431 441 0
-430 436 441 0
430 -441 0
430 431 -436 0
431 374 -432 0
-431 -374 0
-431 432 0
432 296 -433 0
-432 -296 0
-432 433 0
433 298 -434 0
433 -298 -435 0
-433 -298 435 0
-433 298 434 0
434 300 -401 0
434 -300 -403 0
-434 -300 403 0
-434 300 401 0
435 300 -404 0
435 -300 -408 0
-435 -300 408 0
-435 300 404 0
436 646 -437 0
436 -646 647 -440 0
-436 -646 -647 0
-436 646 437 0
-436 -646 440 0
437 647 -438 0
437 -647 -439 0
-437 -647 439 0
-437 647 438 0
438 -227 364 0
-438 227 0
-438 -364 0
439 -244 364 0
-439 244 0
-439 -364 0
440 -256 364 0
-440 256 0
-440 -364 0
441 646 -374 -442 0
441 646 414 -442 0
-441 -646 0
-441 442 0
-441 374 -414 0
442 647 -266 364 0
442 -647 -272 364 0
-442 -364 0
-442 -647 272 0
-442 647 266 0
443 444 -445 451 0
443 -645 -445 451 0
-443 -451 0
-443 445 0
-443 645 -444 0
444 646 -420 0
-444 -646 0
-444 420 0
-445 295 -296 449 0
-445 295 296 446 0
445 -295 0
445 296 -446 0
445 -296 -449 0
446 298 -447 0
446 -298 -448 0
-446 -298 448 0
-446 298 447 0
447 -300 -393 0
447 300 -426 0
-447 300 426 0
-447 -300 393 0
448 300 -394 0
448 -300 -396 0
-448 -300 396 0
-448 300 394 0
449 -298 -434 0
449 298 -450 0
-449 298 450 0
-449 -298 434 0
450 300 -397 0
450 -300 -400 0
-450 -300 400 0
-450 300 397 0
-451 288 295 0
-451 288 296 -452 0
451 -288 0
451 -295 452 0
451 -295 -296 0
452 298 -435 0
-452 -298 0
-452 435 0
-453 467 476 492 0
-453 -454 476 492 0
453 -492 0
453 -476 0
453 454 -467 0
454 645 -455 0
454 -645 -465 0
-454 -645 465 0
-454 645 455 0
455 646 -456 0
455 -646 -464 0
-455 -646 464 0
-455 646 456 0
456 -647 -327 0
456 647 -457 0
-456 647 457 0
-456 -647 327 0
457 -611 9 -463 0
457 611 9 -458 0
-457 -9 0
-457 -611 463 0
-457 611 458 0
-458 -612 270 0
-458 612 459 0
458 -612 -270 0
458 612 -459 0
-459 613 460 0
-459 -613 221 0
459 -613 -221 0
459 613 -460 0
460 -614 -339 0
460 614 -461 0
-460 614 461 0
-460 -614 339 0
461 -615 -332 0
461 615 -462 0
-461 615 462 0
-461 -615 332 0
462 24 -140 0
-462 -24 0
-462 140 0
463 612 -271 0
463 -612 -273 0
-463 -612 273 0
-463 612 271 0
464 -647 -8 0
464 647 -335 0
-464 647 335 0
-464 -647 8 0
465 -646 -419 0
465 646 -466 0
-465 646 466 0
-465 -646 419 0
466 647 -211 0
466 -647 -236 0
-466 -647 236 0
-466 647 211 0
467 288 -295 -475 0
467 288 295 -468 0
-467 -288 0
-467 295 468 0
-467 -295 475 0
-468 296 469 0
-468 -296 446 0
468 -296 -446 0
468 296 -469 0
-469 298 472 0
-469 -298 470 0
469 -298 -470 0
469 298 -472 0
470 -300 -425 0
470 300 -471 0
-470 300 471 0
-470 -300 425 0
471 -615 -89 0
471 -647 -89 0
471 615 647 -84 0
-471 -615 89 0
-471 -647 89 0
-471 615 647 84 0
472 300 -473 0
472 -300 -474 0
-472 -300 474 0
-472 300 473 0
473 -615 -332 0
473 615 647 -462 0
473 -647 -332 0
-473 -647 332 0
-473 615 647 462 0
-473 -615 332 0
474 -615 -81 0
474 615 647 -333 0
474 -647 -81 0
-474 -647 81 0
-474 615 647 333 0
-474 -615 81 0
475 296 -449 0
475 -296 -452 0
-475 -296 452 0
-475 296 449 0
476 -645 6 -477 0
476 645 -477 484 0
-476 477 0
-476 645 -484 0
-476 -645 -6 0
477 288 -295 -483 0
477 288 295 -478 0
-477 -288 0
-477 295 478 0
-477 -295 483 0
-478 296 479 0
-478 -296 412 0
478 -296 -412 0
478 296 -479 0
-479 298 480 0
-479 -298 303 0
479 -298 -303 0
479 298 -480 0
-480 300 481 0
-480 -300 347 0
480 -300 -347 0
480 300 -481 0
481 -615 -462 0
481 615 647 -482 0
481 -647 -462 0
-481 -647 462 0
-481 615 647 482 0
-481 -615 462 0
482 24 -134 0
-482 -24 0
-482 134 0
483 296 -413 0
483 -296 -415 0
-483 -296 415 0
-483 296 413 0
484 -646 -326 0
484 646 -485 0
-484 646 485 0
-484 -646 326 0
485 -647 -457 0
485 647 -486 0
-485 647 486 0
-485 -647 457 0
486 -611 9 -491 0
486 611 9 -487 0
-486 -9 0
-486 -611 491 0
-486 611 487 0
-487 -612 264 0
-487 612 488 0
487 -612 -264 0
487 612 -488 0
-488 -613 79 0
-488 613 489 0
488 -613 -79 0
488 613 -489 0
-489 614 490 0
-489 -614 331 0
489 -614 -331 0
489 614 -490 0
490 -615 -462 0
490 615 -482 0
-490 615 482 0
-490 -615 462 0
491 612 -265 0
491 -612 -267 0
-491 -612 267 0
-491 612 265 0
-492 493 500 501 511 0
-492 -493 -500 501 511 0
492 -511 0
492 -493 500 0
492 -501 0
492 493 -500 0
493 646 -494 0
493 -646 -497 0
-493 -646 497 0
-493 646 494 0
494 647 -495 0
494 -647 -496 0
-494 -647 496 0
-494 647 495 0
495 364 -491 0
-495 -364 0
-495 491 0
496 364 -463 0
-496 -364 0
-496 463 0
497 647 -498 0
497 -647 -499 0
-497 -647 499 0
-497 647 498 0
498 -334 364 0
-498 334 0
-498 -364 0
499 -340 364 0
-499 340 0
-499 -364 0
500 374 -483 0
-500 -374 0
-500 483 0
-501 502 503 -506 -509 0
-501 502 503 506 509 0
501 -502 0
501 506 -509 0
501 -503 0
501 -506 509 0
502 -431 436 0
-502 431 0
-502 -436 0
-503 441 -504 0
-503 370 441 0
-503 -374 441 0
503 -441 0
503 -370 374 504 0
504 -646 -442 0
504 646 -505 0
-504 646 505 0
-504 -646 442 0
505 647 -439 0
505 -647 -440 0
-505 -647 440 0
-505 647 439 0
506 646 -507 0
506 -646 -508 0
-506 -646 508 0
-506 646 507 0
507 647 -382 0
507 -647 -495 0
-507 -647 495 0
-507 647 382 0
508 647 -496 0
508 -647 -498 0
-508 -647 498 0
-508 647 496 0
509 374 -510 0
-509 -374 0
-509 510 0
510 296 -427 0
510 -296 -429 0
-510 -296 429 0
-510 296 427 0
-511 -512 -513 518 0
-511 512 513 518 0
511 -518 0
511 -512 513 0
511 512 -513 0
512 -645 -444 0
512 645 -465 0
-512 645 465 0
-512 -645 444 0
513 288 -514 0
513 288 -517 0
-513 -288 0
-513 514 517 0
514 295 296 -516 0
514 295 -296 -515 0
-514 -295 0
-514 296 516 0
-514 -296 515 0
515 298 -448 0
515 -298 -450 0
-515 -298 450 0
-515 298 448 0
516 -298 -447 0
516 298 -470 0
-516 298 470 0
-516 -298 447 0
517 -295 -432 0
-517 295 0
-517 432 0
-518 -467 519 0
-518 454 -528 0
-518 454 519 0
-518 -467 -528 0
518 -454 467 0
518 -519 528 0
519 288 -295 -527 0
519 288 295 -520 0
-519 -288 0
-519 295 520 0
-519 -295 527 0
-520 296 521 0
-520 -296 516 0
520 -296 -516 0
520 296 -521 0
-521 298 522 0
-521 -298 472 0
521 -298 -472 0
521 298 -522 0
-522 300 523 0
-522 -300 525 0
522 300 -523 0
522 -300 -525 0
-523 -210 524 0
-523 113 210 0
-523 -24 210 0
523 -210 -524 0
523 24 -113 210 0
524 24 -120 0
-524 -24 0
-524 120 0
525 -615 -482 0
525 615 647 -526 0
525 -647 -482 0
-525 -647 482 0
-525 615 647 526 0
-525 -615 482 0
526 24 -126 0
-526 -24 0
-526 126 0
527 -296 -433 0
527 296 -515 0
-527 296 515 0
-527 -296 433 0
528 -645 -455 0
528 645 -529 0
-528 645 529 0
-528 -645 455 0
529 -646 -543 0
529 646 -530 0
-529 646 530 0
-529 -646 543 0
-530 -647 531 0
-530 647 536 0
-530 647 -9 0
530 -647 -531 0
530 647 9 -536 0
531 611 9 -532 0
531 -611 9 -381 0
-531 -9 0
-531 611 532 0
-531 -611 381 0
-532 -612 238 0
-532 612 533 0
532 -612 -238 0
532 612 -533 0
-533 -613 330 0
-533 613 534 0
533 -613 -330 0
533 613 -534 0
-534 614 535 0
-534 -614 490 0
534 -614 -490 0
534 614 -535 0
535 615 -524 0
535 -615 -526 0
-535 -615 526 0
-535 615 524 0
-536 611 537 0
-536 -611 365 0
536 -611 -365 0
536 611 -537 0
537 -612 -220 0
537 612 -538 0
-537 -612 220 0
-537 612 538 0
-538 -613 460 0
-538 613 539 0
538 -613 -460 0
538 613 -539 0
-539 614 541 0
-539 -614 540 0
539 -614 -540 0
539 614 -541 0
540 -615 -482 0
540 615 -526 0
-540 615 526 0
-540 -615 482 0
541 615 -542 0
541 -615 -524 0
-541 -615 524 0
-541 615 542 0
542 24 -113 0
-542 -24 0
-542 113 0
543 -647 -486 0
543 647 -544 0
-543 647 544 0
-543 -647 486 0
544 611 9 -545 0
544 -611 9 -383 0
-544 -9 0
-544 611 545 0
-544 -611 383 0
-545 -612 250 0
-545 612 546 0
545 -612 -250 0
545 612 -546 0
-546 -613 338 0
-546 613 547 0
546 -613 -338 0
546 613 -547 0
-547 614 540 0
-547 -614 461 0
547 -614 -461 0
547 614 -540 0
-548 549 558 570 575 0
548 -575 0
548 -549 0
548 -558 0
548 -570 0
-549 -519 555 0
-549 528 -550 0
-549 528 555 0
-549 -519 -550 0
549 519 -528 0
549 550 -555 0
550 288 -295 -510 0
550 288 295 -551 0
-550 -288 0
-550 295 551 0
-550 -295 510 0
-551 296 552 0
-551 -296 423 0
551 -296 -423 0
551 296 -552 0
-552 298 553 0
-552 -298 554 0
552 298 -553 0
552 -298 -554 0
-553 300 525 0
-553 -300 473 0
553 -300 -473 0
553 300 -525 0
554 -300 -471 0
554 300 -474 0
-554 300 474 0
-554 -300 471 0
555 645 -556 0
555 -645 -557 0
-555 -645 557 0
-555 645 556 0
556 -646 -456 0
556 646 -543 0
-556 646 543 0
-556 -646 456 0
557 646 -464 0
557 -646 -466 0
-557 -646 466 0
-557 646 464 0
-558 -555 559 561 0
-558 550 559 561 0
558 -559 0
558 -561 0
558 -550 555 0
-559 502 -560 0
-559 502 527 0
-559 -374 502 0
559 -502 0
559 374 -527 560 0
560 646 -389 0
560 -646 -507 0
-560 -646 507 0
-560 646 389 0
561 -645 325 -562 0
561 645 -562 568 0
-561 562 0
-561 645 -568 0
-561 -645 -325 0
562 288 -295 -567 0
562 288 295 -563 0
-562 -288 0
-562 295 563 0
-562 -295 567 0
-563 296 564 0
-563 -296 368 0
563 -296 -368 0
563 296 -564 0
-564 298 565 0
-564 -298 346 0
564 -298 -346 0
564 298 -565 0
-565 300 566 0
-565 -300 481 0
565 -300 -481 0
565 300 -566 0
566 -615 -526 0
566 -647 -526 0
566 615 647 -524 0
-566 -615 526 0
-566 -647 526 0
-566 615 647 524 0
567 296 -369 0
567 -296 -371 0
-567 -296 371 0
-567 296 369 0
568 -646 -485 0
568 646 -569 0
-568 646 569 0
-568 -646 485 0
569 647 -531 0
569 -647 -544 0
-569 -647 544 0
-569 647 531 0
570 -645 -418 571 0
570 645 -557 571 0
-570 -571 0
-570 -645 418 0
-570 645 557 0
571 288 -572 0
571 288 -574 0
-571 -288 0
-571 572 574 0
572 295 -296 -391 0
572 295 296 -573 0
-572 -295 0
-572 296 573 0
-572 -296 391 0
-573 298 554 0
-573 -298 424 0
573 -298 -424 0
573 298 -554 0
574 -295 -296 -406 0
574 -295 296 -398 0
-574 295 0
-574 296 398 0
-574 -296 406 0
-575 475 576 0
-575 576 -582 0
-575 -374 576 0
575 -576 0
575 374 -475 582 0
-576 577 -580 0
-576 646 577 0
-576 505 577 0
576 -577 0
576 -646 -505 580 0
577 578 -579 0
577 -578 579 0
-577 -578 -579 0
-577 578 579 0
578 646 -379 0
578 -646 -494 0
-578 -646 494 0
-578 646 379 0
579 374 -567 0
-579 -374 0
-579 567 0
580 -647 -438 0
580 647 -581 0
-580 647 581 0
-580 -647 438 0
581 -154 364 0
-581 154 0
-581 -364 0
582 646 -508 0
582 -646 -583 0
-582 -646 583 0
-582 646 508 0
583 647 -499 0
583 -647 -581 0
-583 -647 581 0
-583 647 499 0
-648 0
2 0

